(set-info :smt-lib-version 2.6)
(set-logic QF_UFLRA)
(set-info :source |
MathSat group

|)
(set-info :category "random")
(set-info :status unsat)
(declare-fun x0 () Real)
(declare-fun x1 () Real)
(declare-fun x2 () Real)
(declare-fun x3 () Real)
(declare-fun x4 () Real)
(declare-fun x5 () Real)
(declare-fun x6 () Real)
(declare-fun x7 () Real)
(declare-fun x8 () Real)
(declare-fun x9 () Real)
(declare-fun x10 () Real)
(declare-fun x11 () Real)
(declare-fun x12 () Real)
(declare-fun x13 () Real)
(declare-fun x14 () Real)
(declare-fun x15 () Real)
(declare-fun x16 () Real)
(declare-fun x17 () Real)
(declare-fun x18 () Real)
(declare-fun x19 () Real)
(declare-fun x20 () Real)
(declare-fun x21 () Real)
(declare-fun x22 () Real)
(declare-fun x23 () Real)
(declare-fun x24 () Real)
(declare-fun x25 () Real)
(declare-fun x26 () Real)
(declare-fun x27 () Real)
(declare-fun x28 () Real)
(declare-fun x29 () Real)
(declare-fun f0_1 (Real) Real)
(declare-fun f0_2 (Real Real) Real)
(declare-fun f0_3 (Real Real Real) Real)
(declare-fun f0_4 (Real Real Real Real) Real)
(declare-fun P0 () Bool)
(declare-fun P1 () Bool)
(declare-fun P2 () Bool)
(declare-fun P3 () Bool)
(declare-fun P4 () Bool)
(declare-fun P5 () Bool)
(declare-fun P6 () Bool)
(declare-fun P7 () Bool)
(declare-fun P8 () Bool)
(declare-fun P9 () Bool)
(declare-fun P10 () Bool)
(declare-fun P11 () Bool)
(declare-fun P12 () Bool)
(declare-fun P13 () Bool)
(declare-fun P14 () Bool)
(declare-fun P15 () Bool)
(declare-fun P16 () Bool)
(declare-fun P17 () Bool)
(declare-fun P18 () Bool)
(declare-fun P19 () Bool)
(declare-fun P20 () Bool)
(declare-fun P21 () Bool)
(declare-fun P22 () Bool)
(declare-fun P23 () Bool)
(declare-fun P24 () Bool)
(declare-fun P25 () Bool)
(declare-fun P26 () Bool)
(declare-fun P27 () Bool)
(declare-fun P28 () Bool)
(declare-fun P29 () Bool)
(assert (let ((?v_19 (distinct (+ (- (* 38 x20) (* 3 x20)) (* 23 x11)) 23)) (?v_86 (= (+ (- (* 11 x28) (* 31 x22)) (* 4 x14)) 40)) (?v_6 (<= (+ (- (* 35 x25) (* 5 x22)) (* 18 x15)) 3)) (?v_61 (<= (- (+ (* 39 x6) (* 30 x21)) (* 31 x15)) 21)) (?v_7 (distinct (+ (- (* 42 x29) (* 17 x12)) (* 22 x11)) 24)) (?v_38 (* 40 x14)) (?v_128 (< (- (+ (* 8 x16) (* 4 x2)) (* 34 x2)) 40)) (?v_59 (= x9 (f0_2 x0 x14))) (?v_113 (distinct (f0_2 x12 x1) (f0_2 x4 x10))) (?v_68 (distinct x11 (f0_1 x13))) (?v_48 (distinct x25 (f0_2 x8 x13))) (?v_78 (f0_1 x20))) (let ((?v_16 (distinct x3 ?v_78)) (?v_77 (distinct x5 (f0_2 x26 x0))) (?v_23 (f0_1 x5))) (let ((?v_10 (= (f0_2 x29 x29) ?v_23)) (?v_27 (= x3 ?v_23)) (?v_136 (distinct (f0_2 x25 x12) (f0_2 x16 x6))) (?v_63 (= x19 (f0_2 x13 x6))) (?v_39 (f0_1 x24))) (let ((?v_51 (= x0 ?v_39)) (?v_30 (= (f0_2 x12 x20) (f0_2 x25 x6))) (?v_74 (distinct x5 (f0_1 x3))) (?v_21 (= x16 x15)) (?v_0 (f0_1 x22))) (let ((?v_5 (distinct x17 ?v_0)) (?v_111 (= (f0_2 x19 x22) ?v_78)) (?v_90 (distinct (f0_1 x14) (f0_2 x16 x10))) (?v_65 (distinct x17 (f0_2 x29 x7))) (?v_99 (distinct (f0_2 x21 x3) (f0_1 x8))) (?v_33 (= (f0_1 x26) (f0_1 x0))) (?v_62 (distinct (f0_1 x18) (f0_2 x0 x29))) (?v_60 (distinct x14 (f0_2 x0 x19))) (?v_119 (distinct (f0_2 x15 x8) (f0_2 x20 x29))) (?v_32 (distinct ?v_0 (f0_2 x26 x25))) (?v_84 (= ?v_39 (f0_2 x20 x11))) (?v_88 (distinct (f0_2 x23 x21) (f0_1 x19))) (?v_43 (distinct (f0_2 x14 x12) x20)) (?v_71 (distinct (f0_1 x25) (f0_2 x20 x9))) (?v_47 (distinct x1 (f0_2 x15 x24))) (?v_22 (distinct (f0_2 x16 x21) (f0_1 x28))) (?v_79 (not ?v_48))) (let ((?v_3 (not ?v_32)) (?v_49 (not ?v_86)) (?v_4 (not P27)) (?v_24 (not ?v_30)) (?v_9 (not ?v_33)) (?v_52 (not ?v_21)) (?v_26 (not ?v_136)) (?v_29 (not P22)) (?v_31 (not P21)) (?v_94 (not P13)) (?v_150 (not P1)) (?v_34 (not ?v_43)) (?v_117 (or P2 P6)) (?v_66 (not ?v_77)) (?v_20 (not ?v_5)) (?v_11 (not P23)) (?v_40 (not ?v_74)) (?v_64 (not ?v_10)) (?v_87 (not P5)) (?v_53 (not ?v_119)) (?v_28 (not ?v_16))) (let ((?v_101 (or ?v_20 P5)) (?v_42 (not P10)) (?v_45 (not ?v_99)) (?v_50 (not ?v_7)) (?v_81 (not P6)) (?v_106 (not ?v_27)) (?v_55 (not ?v_47)) (?v_72 (not ?v_51)) (?v_103 (not ?v_113)) (?v_76 (not P3)) (?v_92 (not ?v_68)) (?v_126 (not ?v_63)) (?v_97 (not ?v_60)) (?v_83 (not P26)) (?v_130 (not ?v_22)) (?v_116 (not ?v_65)) (?v_82 (not P11)) (?v_118 (not P20)) (?v_120 (not ?v_88)) (?v_73 (not P24)) (?v_112 (not P17)) (?v_75 (not P29)) (?v_105 (not P16)) (?v_95 (not P15)) (?v_123 (not P9)) (?v_121 (not ?v_111)) (?v_145 (not P19)) (?v_127 (not ?v_90)) (?v_137 (not ?v_84)) (?v_96 (not P8)) (?v_102 (not ?v_19)) (?v_114 (not P7)) (?v_115 (not ?v_71)) (?v_134 (not P25)) (?v_131 (not P12)) (?v_138 (not P28)) (?v_124 (not ?v_6)) (?v_132 (not ?v_62)) (?v_151 (not ?v_128)) (?v_147 (not ?v_61)) (?v_139 (not P18)) (?v_142 (not P4)) (?v_144 (not P2)) (?v_154 (not P14)) (?v_155 (not P0)) (?v_153 (not ?v_59)) (?v_35 (<= (+ (* 6 x19) (* 40 x26) (* 2 x23)) 5))) (let ((?v_69 (not ?v_35)) (?v_110 (distinct (- (- x20 (* 27 x23)) (* 13 x2)) 9)) (?v_41 (<= (+ (* 6 x4) (* 37 x28) (* 37 x4)) 5))) (let ((?v_70 (not ?v_41)) (?v_148 (not ?v_110)) (?v_44 (< (- (* 9 x23) ?v_38) (- 34)))) (let ((?v_17 (not ?v_44)) (?v_58 (= (+ (* (- 35) x3) (* 16 x27) (* 29 x24)) 26)) (?v_2 (<= (+ (* (- 11) x19) (* 23 x1) (* 20 x9)) 30)) (?v_18 (<= (- (- (* (- 31) x27) (* 5 x16)) (* 4 x10)) 38))) (let ((?v_1 (not ?v_18)) (?v_15 (distinct (- (* 38 x27) (* 24 x14)) (- 23)))) (let ((?v_37 (not ?v_15)) (?v_8 (<= (- (- (* (- 28) x8) (* 41 x17)) (* 25 x24)) 19)) (?v_56 (not ?v_2)) (?v_91 (< (+ (- (* (- 23) x21) (* 32 x21)) (* 31 x21)) 39))) (let ((?v_85 (not ?v_91)) (?v_12 (<= (- (+ (* 28 x13) (* 28 x11)) (* 17 x22)) (- 26))) (?v_93 (<= (- (+ (* 3 x19) (* 12 x24)) (* 4 x25)) (- 33))) (?v_14 (< (+ (* (- 17) x14) (* 7 x29) (* 34 x21)) (- 22))) (?v_13 (<= (- (+ (* (- 25) x14) (* 2 x3)) (* 16 x6)) 8))) (let ((?v_46 (not ?v_13)) (?v_36 (<= (+ (* (- 26) x6) (* 4 x20)) (- 42)))) (let ((?v_67 (not ?v_36)) (?v_25 (< (* (- 40) x13) (- 32)))) (let ((?v_54 (not ?v_25)) (?v_57 (<= (+ (* (- 18) x25) (* 15 x7) (* 23 x18)) (- 33))) (?v_104 (<= (+ (- (* 23 x26) (* 33 x1)) (* 21 x17)) (- 26))) (?v_109 (<= (- (- (* (- 13) x22) ?v_38) (* 14 x5)) (- 2))) (?v_133 (<= (+ (- (* (- 30) x3) (* 35 x6)) (* 13 x11)) (- 14))) (?v_125 (<= (- (- (* (- 4) x4) (* 25 x1)) (* 34 x11)) (- 12)))) (let ((?v_98 (not ?v_125)) (?v_122 (<= (+ (- (* (- 20) x6) (* 15 x29)) (* 5 x26)) (- 34)))) (let ((?v_89 (not ?v_122)) (?v_80 (= (- (+ (* (- 7) x5) (* 13 x15)) (* 42 x15)) 35))) (let ((?v_146 (not ?v_80)) (?v_135 (not ?v_58)) (?v_100 (not ?v_8)) (?v_149 (not ?v_12)) (?v_108 (<= (+ (- (* (- 3) x6) (* 27 x20)) x18) 42)) (?v_143 (not ?v_93)) (?v_107 (not ?v_104))) (let ((?v_141 (not ?v_108)) (?v_140 (not ?v_14)) (?v_129 (not ?v_109)) (?v_152 (not ?v_133))) (and (and (and (and (and (and (and (and (and (and (and (and (and (and (and (and (and (and (and (and (and (and (and (and (and (and (and (and (and (and (and (and (and (and (and (and (and (and (and (and (and (and (and (and (and (and (and (and (and (and (and (and (and (and (and (and (and (and (and (and (and (and (and (and (and (and (and (and (and (and (and (and (and (and (and (and (and (and (and (and (and (and (and (and (and (and (and (and (and (and (and (and (and (and (and (and (and (and (and (and (and (and (and (and (and (and (and (and (and (and (and (and (and (and (and (and (and (and (and (and (and (and (and (and (and (and (and (and (and (and (and (and (and (and (and (and (and (and (and (and (and (and (and (and (and (and (and (and (and (and (and (and (and (and (and (and (and (and (and (and (and (and (and (and (and (and (and (and (and (and (and (and (and (and (and (and (and (and (and (and (and (and (and (and (and (and (and (and (and (and (and (and (and (and (and (and (and (and (and (and (and (and (and (and (and (and (and (and (and (and (and (and (and (and (and (and (and (and (and (and (and (and (and (and (and (and (and (and (and (and (and (and (and (and (and (and (and (and (and (and (and (and (and (and (and (and (and (and (and (and (and (and (and (and (and (and (and (and (and (and (and (and (and (and (and (and (and (and (and (and (and (and (and (and (and (and (and (and (and (and (and (and (and (and (and (and (and (and (and (and (and (and (and (and (and (and (and (and (and (and (and (and (and (and (and (and (and (and (and (and (and (and (and (and (and (and (and (and (and (and (and (and (and (and (and (and (and (and (and (and (and (and (and (and (and (and (and (and (and (and (and (and (and (and (and (and (and (and (and (and (and (and (and (and (and (and (and (and (and (or (or ?v_16 ?v_17) ?v_7) (or (or ?v_58 ?v_19) ?v_2)) (or (or ?v_1 P26) ?v_79)) (or (or ?v_47 P13) ?v_37)) (or (or ?v_8 P15) ?v_5)) (or (or P17 P15) ?v_3)) (or (or ?v_49 ?v_4) ?v_24)) (or (or ?v_6 ?v_9) ?v_52)) (or (or ?v_1 P22) ?v_26)) (or (or ?v_29 ?v_31) ?v_10)) (or (or ?v_56 ?v_94) ?v_150)) (or (or ?v_3 ?v_34) ?v_4)) (or ?v_117 ?v_62)) (or (or ?v_85 ?v_66) ?v_20)) (or (or ?v_11 P7) ?v_40)) (or (or ?v_12 ?v_51) P16)) (or (or ?v_6 ?v_7) ?v_1)) (or (or ?v_8 ?v_93) ?v_9)) (or (or ?v_14 ?v_46) ?v_69)) (or (or ?v_64 ?v_11) ?v_67)) (or (or ?v_22 ?v_110) P17)) (or (or ?v_12 ?v_87) ?v_60)) (or (or ?v_13 ?v_53) P27)) (or (or ?v_14 P17) ?v_15)) (or (or ?v_28 ?v_17) ?v_18)) (or (or ?v_14 ?v_61) ?v_19)) (or ?v_101 P1)) (or (or ?v_42 P18) ?v_45)) (or (or ?v_21 ?v_22) ?v_50)) (or (or P17 ?v_54) ?v_27)) (or (or ?v_24 P25) ?v_81)) (or (or ?v_25 ?v_26) P3)) (or (or ?v_106 ?v_28) ?v_29)) (or (or ?v_30 ?v_31) ?v_32)) (or (or P14 ?v_33) P20)) (or (or (not ?v_57) ?v_5) ?v_16)) (or (or ?v_34 ?v_18) ?v_104)) (or (or ?v_35 ?v_36) ?v_37)) (or (or ?v_109 P14) ?v_84)) (or (or P8 ?v_15) ?v_40)) (or (or ?v_21 P9) ?v_41)) (or (or ?v_41 P29) ?v_42)) (or (or P18 P11) ?v_22)) (or (or ?v_43 ?v_44) ?v_45)) (or (or ?v_20 ?v_46) P16)) (or (or ?v_133 ?v_55) ?v_48)) (or (or ?v_49 ?v_50) ?v_43)) (or (or ?v_72 ?v_52) ?v_44)) (or (or P27 P28) ?v_18)) (or (or ?v_18 ?v_16) P27)) (or (or ?v_35 ?v_103) ?v_65)) (or (or ?v_76 P7) ?v_53)) (or (or P17 P9) ?v_54)) (or (or P1 ?v_33) ?v_55)) (or (or ?v_92 ?v_43) P6)) (or (or P11 P18) ?v_56)) (or (or ?v_59 ?v_57) ?v_71)) (or (or ?v_9 P11) ?v_126)) (or (or ?v_58 ?v_98) ?v_59)) (or (or P12 P16) ?v_97)) (or (or ?v_44 ?v_61) ?v_83)) (or (or ?v_130 ?v_62) ?v_63)) (or (or ?v_64 P21) ?v_116)) (or (or ?v_6 ?v_32) P4)) (or (or ?v_21 ?v_21) ?v_66)) (or (or P18 ?v_1) ?v_67)) (or (or ?v_82 ?v_118) ?v_61)) (or (or ?v_68 ?v_69) P11)) (or (or ?v_70 ?v_70) ?v_34)) (or (or ?v_71 P26) P9)) (or (or ?v_120 ?v_11) ?v_57)) (or (or ?v_72 ?v_9) ?v_73)) (or (or ?v_69 P15) ?v_49)) (or (or P15 ?v_73) ?v_16)) (or (or ?v_60 ?v_74) ?v_112)) (or (or ?v_16 ?v_75) P24)) (or (or ?v_5 ?v_89) ?v_54)) (or (or ?v_30 ?v_80) ?v_45)) (or (or P18 ?v_37) ?v_21)) (or (or ?v_105 ?v_10) P22)) (or (or P8 ?v_4) ?v_95)) (or (or P4 ?v_75) ?v_76)) (or (or ?v_123 ?v_59) ?v_5)) (or (or P7 P22) ?v_77)) (or (or ?v_121 ?v_79) ?v_146)) (or (or ?v_54 ?v_145) ?v_81)) (or (or ?v_127 ?v_82) ?v_83)) (or (or P11 ?v_83) ?v_14)) (or (or ?v_19 ?v_2) ?v_74)) (or (or ?v_135 ?v_31) ?v_137)) (or (or ?v_85 ?v_86) ?v_87)) (or (or ?v_22 P28) ?v_88)) (or (or ?v_89 ?v_90) ?v_100)) (or (or ?v_149 ?v_91) ?v_128)) (or (or ?v_96 ?v_77) ?v_73)) (or (or ?v_90 ?v_43) ?v_70)) (or (or ?v_88 ?v_4) ?v_60)) (or (or P5 ?v_41) ?v_92)) (or (or ?v_31 ?v_44) P1)) (or (or ?v_93 ?v_94) ?v_95)) (or (or P19 ?v_96) P20)) (or (or ?v_102 ?v_30) ?v_49)) (or (or ?v_97 P11) ?v_54)) (or (or ?v_55 ?v_98) ?v_50)) (or (or P27 ?v_68) ?v_99)) (or (or ?v_76 ?v_100) ?v_10)) (or ?v_101 ?v_15)) (or (or ?v_114 ?v_21) ?v_108)) (or (or ?v_46 ?v_143) ?v_21)) (or (or ?v_56 ?v_80) ?v_87)) (or (or ?v_99 P13) ?v_92)) (or (or ?v_115 ?v_30) ?v_42)) (or (or ?v_102 ?v_80) ?v_12)) (or (or ?v_44 ?v_134) ?v_74)) (or (or ?v_103 ?v_107) ?v_99)) (or (or ?v_12 ?v_99) ?v_16)) (or (or ?v_131 ?v_43) ?v_82)) (or (or ?v_10 ?v_87) ?v_93)) (or (or ?v_87 ?v_67) ?v_105)) (or (or ?v_106 ?v_107) ?v_141)) (or (or ?v_72 ?v_90) ?v_60)) (or (or ?v_109 ?v_110) ?v_9)) (or (or P0 ?v_57) ?v_111)) (or (or ?v_12 P26) P14)) (or (or ?v_112 ?v_106) ?v_113)) (or (or ?v_32 ?v_111) ?v_17)) (or (or ?v_140 ?v_33) ?v_114)) (or (or ?v_115 ?v_26) ?v_93)) (or (or ?v_44 ?v_79) ?v_82)) (or (or ?v_116 ?v_107) ?v_110)) (or (or ?v_82 P11) ?v_56)) (or (or ?v_95 ?v_51) P22)) (or (or P12 ?v_70) ?v_138)) (or (or ?v_22 ?v_7) ?v_129)) (or (or ?v_6 ?v_47) ?v_74)) (or (or P15 P12) P3)) (or ?v_117 ?v_124)) (or (or ?v_30 ?v_3) ?v_118)) (or (or ?v_119 ?v_65) ?v_110)) (or (or ?v_99 P16) ?v_120)) (or (or ?v_103 ?v_63) P2)) (or (or ?v_35 ?v_121) ?v_122)) (or (or ?v_10 ?v_37) ?v_22)) (or (or ?v_57 ?v_70) ?v_120)) (or (or ?v_123 ?v_58) ?v_2)) (or (or ?v_58 ?v_132) ?v_124)) (or (or ?v_125 ?v_69) ?v_51)) (or (or ?v_7 ?v_126) ?v_127)) (or (or ?v_151 ?v_129) ?v_81)) (or (or ?v_120 ?v_85) ?v_87)) (or (or ?v_30 ?v_12) ?v_61)) (or (or ?v_69 ?v_31) P0)) (or (or ?v_3 ?v_110) P4)) (or (or ?v_81 ?v_71) ?v_130)) (or (or ?v_131 ?v_52) P0)) (or (or ?v_119 ?v_67) ?v_46)) (or (or P7 P10) P22)) (or (or ?v_131 ?v_48) ?v_27)) (or (or ?v_65 ?v_132) ?v_14)) (or (or ?v_104 P28) P20)) (or (or ?v_75 ?v_79) ?v_105)) (or (or P5 ?v_52) P11)) (or (or ?v_110 ?v_14) ?v_95)) (or (or ?v_11 ?v_131) ?v_133)) (or (or ?v_30 ?v_75) P25)) (or (or ?v_16 ?v_122) ?v_106)) (or (or ?v_40 ?v_148) ?v_123)) (or (or ?v_147 ?v_129) ?v_52)) (or (or ?v_43 ?v_62) ?v_22)) (or (or ?v_29 ?v_19) P6)) (or (or ?v_115 ?v_50) ?v_88)) (or (or P3 ?v_92) ?v_22)) (or (or ?v_134 ?v_68) ?v_62)) (or (or P9 P11) ?v_2)) (or (or P7 ?v_21) ?v_152)) (or (or ?v_44 ?v_133) ?v_47)) (or (or ?v_123 ?v_104) ?v_53)) (or (or ?v_135 ?v_56) ?v_136)) (or (or ?v_137 ?v_54) P20)) (or (or ?v_139 ?v_67) ?v_27)) (or (or ?v_32 P23) ?v_43)) (or (or ?v_15 ?v_138) ?v_28)) (or (or ?v_142 ?v_11) ?v_43)) (or (or ?v_98 ?v_36) ?v_139)) (or (or ?v_47 ?v_108) ?v_113)) (or (or ?v_116 ?v_144) ?v_111)) (or (or ?v_79 ?v_93) ?v_5)) (or (or ?v_140 ?v_103) ?v_135)) (or (or ?v_15 P10) ?v_87)) (or (or ?v_124 ?v_37) ?v_127)) (or (or P5 ?v_54) ?v_34)) (or (or ?v_111 ?v_72) P22)) (or (or ?v_5 ?v_96) ?v_103)) (or (or ?v_81 ?v_91) ?v_5)) (or (or ?v_88 ?v_103) P4)) (or (or ?v_106 ?v_103) ?v_122)) (or (or ?v_133 ?v_18) ?v_129)) (or (or ?v_33 ?v_47) ?v_81)) (or (or ?v_141 ?v_154) ?v_8)) (or (or ?v_86 P3) ?v_16)) (or (or P20 ?v_1) ?v_17)) (or (or ?v_142 P29) P10)) (or (or ?v_77 ?v_88) ?v_48)) (or (or ?v_143 ?v_72) ?v_122)) (or (or ?v_4 P6) ?v_92)) (or (or ?v_139 ?v_7) ?v_51)) (or (or ?v_128 ?v_120) P26)) (or (or ?v_34 ?v_132) ?v_87)) (or (or ?v_124 ?v_54) ?v_5)) (or (or ?v_143 P19) P1)) (or (or ?v_155 ?v_113) ?v_34)) (or (or P0 ?v_43) P26)) (or (or ?v_144 ?v_143) ?v_48)) (or (or P27 ?v_100) ?v_124)) (or (or ?v_63 P12) ?v_30)) (or (or ?v_119 ?v_61) ?v_2)) (or (or ?v_89 ?v_145) ?v_74)) (or (or ?v_41 ?v_81) P24)) (or (or P18 ?v_22) ?v_108)) (or (or ?v_120 ?v_80) ?v_121)) (or (or ?v_139 ?v_4) ?v_67)) (or (or ?v_24 ?v_68) P9)) (or (or ?v_146 ?v_95) P1)) (or (or ?v_118 ?v_45) ?v_6)) (or (or ?v_54 ?v_93) ?v_49)) (or (or ?v_49 P24) ?v_13)) (or (or ?v_143 ?v_99) ?v_147)) (or (or ?v_139 ?v_104) ?v_28)) (or (or ?v_113 ?v_140) ?v_65)) (or (or ?v_92 ?v_8) ?v_114)) (or (or ?v_81 ?v_9) ?v_84)) (or (or ?v_129 P15) ?v_131)) (or (or ?v_73 ?v_68) P13)) (or (or ?v_60 ?v_6) ?v_73)) (or (or ?v_45 ?v_1) ?v_113)) (or (or P28 P7) P21)) (or (or ?v_123 ?v_153) ?v_35)) (or (or ?v_66 P22) ?v_125)) (or (or ?v_28 ?v_139) ?v_30)) (or (or ?v_2 ?v_49) ?v_74)) (or (or P27 P18) ?v_41)) (or (or ?v_127 ?v_90) ?v_113)) (or (or ?v_68 ?v_90) ?v_108)) (or (or ?v_75 ?v_148) ?v_121)) (or (or ?v_149 P29) ?v_123)) (or (or ?v_35 ?v_62) P11)) (or (or ?v_16 P14) ?v_43)) (or (or ?v_105 ?v_122) ?v_19)) (or (or ?v_150 ?v_12) P0)) (or (or ?v_112 ?v_19) ?v_14)) (or (or ?v_151 ?v_32) ?v_63)) (or (or ?v_138 ?v_152) ?v_17)) (or (or ?v_103 ?v_22) ?v_126)) (or (or ?v_41 ?v_71) P10)) (or (or ?v_77 P5) ?v_45)) (or (or P10 ?v_98) ?v_113)) (or (or ?v_105 ?v_50) ?v_16)) (or (or ?v_20 ?v_94) ?v_12)) (or (or ?v_73 P5) P10)) (or (or ?v_104 ?v_37) ?v_65)) (or (or ?v_51 ?v_116) ?v_33)) (or (or ?v_65 ?v_115) P19)) (or (or P10 ?v_42) ?v_103)) (or (or ?v_152 ?v_102) ?v_28)) (or (or ?v_73 ?v_153) ?v_86)) (or (or ?v_9 P22) ?v_17)) (or (or ?v_60 P23) ?v_61)) (or (or ?v_50 ?v_25) ?v_27)) (or (or ?v_76 ?v_140) ?v_154)) (or (or ?v_147 ?v_18) ?v_131)) (or (or ?v_37 ?v_35) ?v_43)) (or (or ?v_123 P14) ?v_52)) (or (or ?v_152 ?v_121) ?v_134)) (or (or ?v_44 ?v_145) ?v_140)) (or (or ?v_59 ?v_98) ?v_149)) (or (or ?v_95 ?v_6) ?v_65)) (or (or ?v_60 ?v_62) ?v_144)) (or (or ?v_94 ?v_103) ?v_27)) (or (or ?v_36 P6) ?v_13)) (or (or ?v_111 ?v_114) ?v_18)) (or (or ?v_133 ?v_145) P1)) (or (or P14 ?v_22) ?v_141)) (or (or ?v_137 ?v_52) ?v_99)) (or (or ?v_131 ?v_99) ?v_14)) (or (or ?v_116 ?v_57) ?v_126)) (or (or P27 ?v_149) P26)) (or (or ?v_139 ?v_40) ?v_84)) (or (or ?v_73 ?v_136) ?v_1)) (or (or ?v_155 ?v_22) P15)) (or (or ?v_85 ?v_62) ?v_20)) (or (or P12 ?v_133) ?v_154)) (or (or ?v_72 ?v_5) ?v_13)) (or (or ?v_103 ?v_87) ?v_106)) (or (or ?v_108 ?v_52) ?v_27)) (or (or ?v_58 P19) ?v_3)) (or (or ?v_111 P9) ?v_96)) (or (or ?v_44 ?v_102) ?v_109)) (or (or ?v_29 ?v_1) P9)) (or (or ?v_49 ?v_54) ?v_28)) (or (or ?v_89 ?v_40) ?v_45)) (or (or ?v_122 ?v_145) ?v_126)) (or (or ?v_93 ?v_96) ?v_14)) (or (or ?v_42 P1) ?v_43)) (or (or ?v_44 ?v_32) ?v_70)) (or (or ?v_88 ?v_57) ?v_144)) (or (or ?v_9 ?v_126) ?v_16)) (or (or ?v_150 ?v_136) ?v_129)) (or (or ?v_18 ?v_118) ?v_130)) (or (or ?v_75 ?v_114) ?v_58)) (or (or ?v_5 P27) P1)) (or (or ?v_79 ?v_106) P11)) (or (or ?v_146 P8) ?v_2)) (or (or ?v_57 ?v_102) ?v_30)) (or (or P18 ?v_136) ?v_58)) (or (or ?v_132 ?v_112) ?v_118)) (or (or ?v_92 ?v_97) ?v_118)) (or (or ?v_134 ?v_128) ?v_86)) (or (or ?v_136 ?v_96) ?v_119)) (or (or ?v_67 ?v_15) ?v_102)) (or (or P25 ?v_102) ?v_67)) (or (or ?v_37 ?v_102) ?v_155)) (or (or ?v_29 ?v_49) P26)) (or (or ?v_131 ?v_129) ?v_54)) (or (or ?v_18 ?v_28) ?v_43)) (or (or ?v_120 ?v_126) P19)) (or (or ?v_155 ?v_75) P4)) (or (or ?v_30 P8) ?v_94)) (or (or ?v_123 ?v_120) ?v_111)) (or (or ?v_116 ?v_92) P11)) (or (or ?v_1 ?v_135) ?v_73)) (or (or ?v_76 ?v_26) ?v_17)) (or (or ?v_76 ?v_22) ?v_154)) (or (or P1 ?v_68) ?v_56)) (or (or ?v_50 ?v_1) ?v_122)) (or (or ?v_29 ?v_87) ?v_53)) (or (or ?v_152 ?v_96) ?v_66)) (or (or ?v_42 ?v_100) ?v_14)) (or (or ?v_134 ?v_90) ?v_152)) (or (or P10 ?v_74) ?v_125)) (or (or ?v_110 ?v_141) P19)) (or (or ?v_73 ?v_139) ?v_34)) (or (or ?v_122 ?v_118) ?v_71)) (or (or ?v_53 ?v_150) ?v_32)) (or (or ?v_53 P11) ?v_52)) (or (or ?v_64 ?v_80) ?v_119)) (or (or ?v_148 ?v_135) P11)) (or (or ?v_37 ?v_83) ?v_66)) (or (or ?v_127 P15) P22)) (or (or ?v_50 ?v_65) ?v_4)) (or (or ?v_45 ?v_112) ?v_60)) (or (or ?v_88 ?v_151) P8)) (or (or ?v_18 ?v_148) ?v_134)) (or (or ?v_97 P1) ?v_102)) (or (or ?v_89 ?v_150) ?v_72)) (or (or ?v_102 ?v_144) ?v_80)) (or (or P16 ?v_122) P17)) (or (or ?v_155 ?v_2) ?v_19)) (or (or ?v_62 ?v_5) ?v_139)) (or (or ?v_149 P13) ?v_150)) (or (or ?v_85 ?v_1) ?v_128)))))))))))))))))))))))
(check-sat)
(exit)
